certificates/rado_a9_c77_N24.cnf
c Rad2 upper bound instance: x1 + 9*x2 - x3 = 77, interval [1,24]
p cnf 24 124
1 5 9 0
-1 -5 -9 0
1 10 14 0
-1 -10 -14 0
1 11 23 0
-1 -11 -23 0
2 6 9 0
-2 -6 -9 0
2 10 15 0
-2 -10 -15 0
2 11 24 0
-2 -11 -24 0
3 7 9 0
-3 -7 -9 0
3 10 16 0
-3 -10 -16 0
4 8 9 0
-4 -8 -9 0
4 10 17 0
-4 -10 -17 0
5 9 0
-5 -9 0
5 10 18 0
-5 -10 -18 0
1 6 8 0
-1 -6 -8 0
6 9 10 0
-6 -9 -10 0
6 10 19 0
-6 -10 -19 0
2 7 8 0
-2 -7 -8 0
7 9 11 0
-7 -9 -11 0
7 10 20 0
-7 -10 -20 0
3 8 0
-3 -8 0
8 9 12 0
-8 -9 -12 0
8 10 21 0
-8 -10 -21 0
9 13 0
-9 -13 0
9 10 22 0
-9 -10 -22 0
5 8 10 0
-5 -8 -10 0
9 10 14 0
-9 -10 -14 0
10 23 0
-10 -23 0
6 8 11 0
-6 -8 -11 0
9 11 15 0
-9 -11 -15 0
10 11 24 0
-10 -11 -24 0
7 8 12 0
-7 -8 -12 0
9 12 16 0
-9 -12 -16 0
8 13 0
-8 -13 0
9 13 17 0
-9 -13 -17 0
8 9 14 0
-8 -9 -14 0
9 14 18 0
-9 -14 -18 0
1 7 15 0
-1 -7 -15 0
8 10 15 0
-8 -10 -15 0
9 15 19 0
-9 -15 -19 0
2 7 16 0
-2 -7 -16 0
8 11 16 0
-8 -11 -16 0
9 16 20 0
-9 -16 -20 0
3 7 17 0
-3 -7 -17 0
8 12 17 0
-8 -12 -17 0
9 17 21 0
-9 -17 -21 0
4 7 18 0
-4 -7 -18 0
8 13 18 0
-8 -13 -18 0
9 18 22 0
-9 -18 -22 0
5 7 19 0
-5 -7 -19 0
8 14 19 0
-8 -14 -19 0
9 19 23 0
-9 -19 -23 0
6 7 20 0
-6 -7 -20 0
8 15 20 0
-8 -15 -20 0
9 20 24 0
-9 -20 -24 0
7 21 0
-7 -21 0
8 16 21 0
-8 -16 -21 0
7 8 22 0
-7 -8 -22 0
8 17 22 0
-8 -17 -22 0
7 9 23 0
-7 -9 -23 0
8 18 23 0
-8 -18 -23 0
1 6 24 0
-1 -6 -24 0
7 10 24 0
-7 -10 -24 0
8 19 24 0
-8 -19 -24 0
