certificates/rado_a9_c77_N24.drat
7 10 -24 0
-23 -24 0
-24 0
-21 23 0
-7 -10 0
d -7 -20 -10 0
23 0
-10 0
11 0
7 0
-1 0
-9 0
-21 0
6 0
14 0
5 0
13 0
22 0
20 0
17 0
8 0
0
